VRPTWMS/instances/mip/fuel/4/N4-C_DV100-C_SV30_F6_10_No_1.log

Gurobi 6.0.4 (win64) logging started 06/21/15 19:06:15

Read LP format model from file C:\MT\repository\VRPTWMS\instances\mip\fuel\N4-C_DV100-C_SV30_F6_10_No_1.lp
Reading time = 0.00 seconds
(null): 129 rows, 76 columns, 459 nonzeros
Optimize a model with 129 rows, 76 columns and 459 nonzeros
Model has 80 quadratic constraints
Coefficient statistics:
  Matrix range    [1e+00, 1e+06]
  Objective range [1e+05, 1e+07]
  Bounds range    [1e+00, 1e+06]
  RHS range       [1e+00, 1e+06]
Presolve removed 29 rows and 16 columns
Presolve time: 0.01s
Presolved: 229 rows, 129 columns, 961 nonzeros
Variable types: 60 continuous, 69 integer (48 binary)
Found heuristic solution: objective 4.191640e+07

Root relaxation: objective 1.145490e+07, 24 iterations, 0.00 seconds

    Nodes    |    Current Node    |     Objective Bounds      |     Work
 Expl Unexpl |  Obj  Depth IntInf | Incumbent    BestBd   Gap | It/Node Time

     0     0 1.1455e+07    0    2 4.1916e+07 1.1455e+07  72.7%     -    0s
H    0     0                    2.167260e+07 1.1455e+07  47.1%     -    0s
     0     0 1.1632e+07    0    7 2.1673e+07 1.1632e+07  46.3%     -    0s
     0     0 1.1832e+07    0   22 2.1673e+07 1.1832e+07  45.4%     -    0s
     0     0 1.2170e+07    0   38 2.1673e+07 1.2170e+07  43.8%     -    0s
     0     0 1.2326e+07    0   40 2.1673e+07 1.2326e+07  43.1%     -    0s
     0     0 1.2434e+07    0   42 2.1673e+07 1.2434e+07  42.6%     -    0s
     0     0 1.2488e+07    0   33 2.1673e+07 1.2488e+07  42.4%     -    0s
     0     0 1.2488e+07    0   34 2.1673e+07 1.2488e+07  42.4%     -    0s
     0     0 1.2488e+07    0   34 2.1673e+07 1.2488e+07  42.4%     -    0s
     0     0 1.2488e+07    0   21 2.1673e+07 1.2488e+07  42.4%     -    0s
     0     0 1.2837e+07    0   30 2.1673e+07 1.2837e+07  40.8%     -    0s
     0     0 2.1445e+07    0    6 2.1673e+07 2.1445e+07  1.05%     -    0s
     0     0 2.1487e+07    0   10 2.1673e+07 2.1487e+07  0.86%     -    0s

Cutting planes:
  Gomory: 1
  Cover: 1
  Clique: 3
  MIR: 1

Explored 0 nodes (301 simplex iterations) in 0.07 seconds
Thread count was 2 (of 4 available processors)

Optimal solution found (tolerance 1.00e-04)
Best objective 2.167260000000e+07, best bound 2.167260000000e+07, gap 0.0%
k_c1	880000.0
k_c2	1000000.0
k_c3	809999.0
k_c4	40000.0
k_dN	-0.0
o_1	0.0
o_2	0.0
o_3	0.0
o_4	0.0
p_1	0.0
p_2	0.0
p_3	0.0
p_4	0.0
phi_c1	25181.0
phi_c2	51724.0
phi_c3	47128.0
phi_c4	17775.0
phi_dN	0.0
pi_c1	286407.0
pi_c2	0.0
pi_c3	0.0
pi_c4	286407.0
pi_dN	-0.0
tauD_c1	250000.0
tauD_c2	100000.0
tauD_c3	442999.0
tauD_c4	600000.0
tauD_d0	-0.0
tauD_dN	1000000.0
tauS_c1	825900.0
tauS_c2	0.0
tauS_c3	856899.0
tauS_c4	853575.0
tauS_d0	-0.0
tauS_dN	48400.0
x_c1_dN	1.0
x_c2_c1	1.0
x_c3_c4	1.0
x_c4_dN	1.0
x_d0_c2	1.0
x_d0_c3	1.0
